NAME : P111122.73222.tour
COMMENT : Length = 73222
COMMENT : Found by LKH-3 [Keld Helsgaun] Tue Dec 17 14:07:02 2024
TYPE : TOUR
DIMENSION : 140
TOUR_SECTION
1
39
43
121
2
74
122
3
123
4
124
5
125
6
91
126
7
35
127
8
128
9
52
58
111
47
119
71
112
23
61
104
46
41
31
73
28
63
89
53
33
37
103
100
114
96
27
81
107
110
87
98
38
50
80
67
108
93
68
36
117
82
97
99
55
62
25
65
51
24
44
40
95
77
76
101
54
29
79
92
90
105
115
88
21
32
129
10
130
11
131
12
116
60
132
13
133
14
26
83
59
113
66
84
64
34
69
75
109
72
106
42
102
48
45
120
85
49
30
94
57
134
15
22
135
16
118
136
17
137
18
78
70
86
138
19
56
139
20
140
-1
EOF
